Reproduction of the Original Problem/Instances/S1-15/S1-5-15-2-l.txt
     100      15    0.05
       3       1       3       3       3       3       3       1       3       1       1       3       1       3       1      13       4       6       3      14      13      12       7       1       1       7      10      12      12       4       7
       2       2       3       3       1       2       1       3       3       3       3       3       1       3       3       1       1       0      12       5       7       5      12      13       1       0      13      12       0       6      11
       1       1       1       2       3       2       2       1       3       3       3       2       1       3       2       6      14      11       1      10      15      12       7      13       0      14       8       1      15      15       6
       2       2       1       1       2       3       3       2       2       2       1       2       2       1       3      12       4       4       2       9       3      13      15       5       6       9      11      15      15       0       7
       2       3       1       2       3       2       2       2       1       3       1       1       3       1       2      15       7       5       4      11      13      11       4      10       1       9      11      11      10       5      10
       2       1       2       2       3       1       1       3       2       1       2       2       3       1       3       3       8       8      14       9      11       4       4      14       5      13      16       8      14       5       6
       3       2       1       3       2       1       3       2       2       3       3       1       1       3       1      11      14      16       2       5       2       3       7       6      11       1       9      11      16       5      10
       1       1       1       1       2       3       1       1       1       3       2       1       1       3       3       3       4      15       2       0      11       8       6       4       3      15       5      15      14       6      11
       2       2       2       2       2       2       2       3       2       2       1       3       3       3       3       8      13      16       8       3      11       9      14       5       1      14      14      13      16      14       9
       1       3       3       3       2       2       3       1       2       2       1       3       2       2       1       1       7       9      11       5      15      12       7       6      15      14       0       7       3       3       6
       1       1       2       3       2       2       2       2       2       3       2       1       3       1       2       7       8      16       8       5      10       2       4       0       9       1       5      15      11      14       7
       1       1       2       2       3       1       2       3       2       2       3       1       3       2       1       7       1       6       0       8       9      14       8      14      15       4       9      10       7      12      11
       1       2       2       3       3       1       3       1       3       2       2       1       1       1       3       0      11      14       5      15       5       4       2       4       1      14      12       1      13       4       7
       1       2       2       3       1       3       2       1       3       2       2       1       1       2       3       7       6       1      11       7       6       6      13      16       8       7       1       8       4       6      11
       2       3       3       2       2       1       1       1       2       3       1       3       3       2       1       3      15       4       1       8       2      16       7      10       4      11      15       8       1      13       8
       2       3       2       1       3       1       2       3       1       3       1       1       1       3       2      13       3       2       5       1      15       4      14      14       0       3       9       9      14       3      11
       2       1       2       2       1       3       3       1       2       2       3       2       2       2       2       8      14      13      12      10       9      16       5      16       6      13       7       4      15      10      11
       3       3       3       1       2       3       3       3       3       3       3       2       1       1       3       6       4       5       0      15      13       7      13       6       3      12      12       6      13      14      10
       2       1       2       3       3       1       3       1       1       3       2       2       1       3       1      14      16       4      12      11       8       3       9       1      12      16       5       1      14       1       8
       1       1       1       1       3       3       2       1       1       1       3       1       1       3       3       0       2       3      10       5       8       8      13      13       9       2       6       4       7      10       9
       2       3       2       2       1       3       3       3       3       2       1       2       3       3       1       1       6      13       7      16       8       5      16      13       1       7      11      13      14       0       8
       3       3       2       2       3       3       1       3       1       3       3       3       3       2       2       1       6       8       0      16       5       9      15       9       8      13       2      11       2       3       8
       3       3       1       3       1       3       3       3       3       2       1       3       1       1       3      10       3       0       1       6       0      13       7       4       2       7      11       7       0       0      10
       1       1       1       2       2       2       2       2       3       3       1       1       2       3       1       8      14       4       3       3      14       7      11      13      13       0       5      10       4       5      11
       1       2       2       1       2       3       3       1       3       3       1       3       2       2       1       5       1      16      13      10       1      14      10      14       1       9       3       7       6       0       9
       2       2       3       1       2       2       3       1       1       3       1       1       3       3       3      11      14       9      15      16       3      12       7      14       8      16       7      15      14      13       7
       2       3       1       3       2       2       1       3       2       3       1       3       2       3       3      16       3      14      14       5       8       9       5       4      10      13       4       4      12       4      11
       2       1       1       2       2       3       2       3       1       1       2       1       3       3       2      15       1      12      12       0       4       6       6       6       6      15      13      10      16       1       9
       1       2       1       2       2       1       3       1       3       2       2       2       1       1       2       2      13      11      10      13       8      15      15       4      16       2       8      10       6      14       7
       1       1       1       2       3       3       2       2       3       3       2       1       1       3       2       4       8       9      16      14       6       5      16      13       2      11       3       7       1       3      11
       2       1       3       3       1       1       3       3       2       2       2       2       3       2       3      12      14       1       6       2       1      11       6      14      12      15      16       5       6       1      11
       3       2       1       2       2       1       3       3       1       3       2       2       1       2       3      12      15      10      12       7       9      16       3      12       2      16       8       6       6       2       9
       3       3       1       2       2       1       1       2       3       1       1       2       3       2       1       0       6       5      16       5       7       6       7       8       1      15       8       9      16      12      11
       1       1       2       3       1       2       1       3       3       2       1       2       2       1       1      11       9       1      10      13       6       1       9       4       1       1       7      13      13      10      10
       3       2       1       3       1       2       2       1       3       3       2       1       2       2       1       4      15       2       0       1      11       3       0      15      10       4       6      12       7      13      10
       2       3       3       3       3       1       1       3       1       1       2       3       3       2       3       5       0       1      14      11       2      12      10      14       0       1      15       1      12      13       9
       2       3       1       1       1       3       2       1       3       3       3       1       3       1       3       5      15      13       5      16      16       4      12       4      13       4      16      10       6       1       8
       2       1       2       1       2       2       3       1       2       1       2       1       3       3       3       4       7       2       7       5       0       7      12       9       6       5      13       1       9       3      11
       1       1       1       2       3       2       2       2       2       2       1       1       3       1       2       1      14      12      11       5       6       2       9       4       3       7      11       0       0      14       9
       1       1       1       3       2       3       2       1       1       1       1       3       2       1       2       6      14       5      16       3      15       7       9       2      12       4       8       6       5      13       6
       3       1       2       2       1       3       2       1       3       3       3       1       2       1       2       0      13       6       7      15      14      10       9      14       4      15      16      13       7      11       9
       2       3       1       1       3       1       3       2       3       1       1       3       1       2       1      10       6      10       0      15       4       3       1       8       9      12      12       0      14      15       8
       1       3       3       2       2       2       1       1       1       3       3       3       2       1       1      15       9       3      10       5       6      13      15       5       5      12       0       1      16       3      10
       2       2       2       2       1       1       2       2       2       1       1       2       1       2       1       0      10       1       1       4       1      12       6      16       8       1       1       7      10      12       7
       3       3       1       1       3       2       3       1       3       3       1       2       3       3       2       2       3       7      14      13       6      16       5       1       0      12       2       8       6      10       7
       2       1       1       2       2       1       1       3       1       1       1       2       3       1       3       3       3       1      11      10      11       7      15      13      13       2      12       4      12      11      11
       1       3       2       3       3       1       3       3       1       2       1       3       2       3       1       6       1       4       1      14      16       7       1       3       2       7       4      13       6      14      10
       2       1       2       1       2       2       2       1       2       3       3       2       3       2       1      11       0      11       6       4       8       4      11       5      14       4       9       7      13       9       6
       2       1       1       2       1       1       2       3       2       1       2       2       1       2       1      12       1       2      15      15       7       0       6       0       5      11       6       7      12      16       6
       1       1       3       2       2       3       2       2       2       2       1       3       2       3       3       3       2       5       1       7      14      11       1      13       8      15       6       1      11       2       8
       1       1       2       1       2       1       1       2       3       1       3       3       1       3       3      10       9      14       8      13       8       5      13      12       2       7       6       5      15      12       7
       3       1       3       1       3       3       2       1       2       3       1       1       1       3       3      16       7       0       4       4       2       7      10      12      13       2       2       0       4      16       8
       2       2       1       3       1       1       3       3       3       3       2       2       3       3       1       9       9      12       1      16      13      12      12       5      15      14      10      16       8       3      11
       1       2       3       3       2       2       1       2       2       3       2       2       2       1       2       1       8       7      14       4      11       0       1      16       9      10       3       9       8       1       6
       1       1       3       2       3       1       1       2       2       2       2       3       3       3       2       9       3       3      14      10       3      15       5      15       4       2       3       3      14       7       8
       2       3       2       1       2       2       2       2       1       2       2       3       1       2       2      10       2      15       1      14      16       1      10       7       3       7       9      10       3      15       7
       2       2       3       1       2       2       2       2       3       1       2       1       1       3       1       5       4      13      10      13       9      14      15       4      12       4       7      10       1      10      11
       1       2       2       1       1       1       2       2       3       2       3       2       3       3       2       1      10      13      10       6      16      11      14       1       1       7       4      11       9       8       6
       2       1       1       2       2       1       1       2       3       2       2       2       2       3       2      10       2      15       8       9      14      10      12      15      11      15      15      11       5       0       6
       3       1       3       2       3       3       2       2       3       3       1       2       2       2       3       2      10       9      13       4      13      14      13      15      11       7      14      15       1       2       9
       3       3       2       1       3       3       2       3       1       1       2       3       3       3       3      10      12       2       9       1      11      13      10      12      12       5       3       8       9       1       9
       1       1       1       1       3       1       2       2       1       3       2       3       1       3       2       9       6       2      14       1      13       1       7      11       8       4       0      11       5      12      10
       2       1       3       3       1       2       2       1       1       1       3       3       1       2       1       8      11      12      12       5       1       8       1       4       3       9       0       0      11       5       7
       2       1       1       1       3       3       1       1       3       2       1       2       2       3       3       8      11       9       5       2       5       4      16       0       3       4      13       1       9      10       7
       2       3       1       3       2       3       2       1       1       1       3       3       3       1       1      16       6      11       6      15       2       2       3       5       8      14      13       1       7       1      10
       2       1       2       2       1       3       2       3       3       1       1       3       2       3       2      15       3       6      13       7      13      15       8       5       1       3      13       1       2      10      10
       1       3       2       2       1       2       1       2       1       3       2       3       1       3       1      15       2       3      13      11       2       8       9       6      16       3       4       4      13       2      11
       2       2       3       3       1       1       2       1       1       3       1       2       3       2       1      13       3       7      16       5      12       2      15       4       9      13      16       6       6      16      11
       2       1       2       3       3       1       1       2       3       2       1       3       1       3       1       1       7      16       0       9       5      13       0       5       4       9      14      12      10       8      11
       3       3       3       1       3       2       1       2       3       3       2       3       3       1       3       7       3       0      16      14       5       7       5      10      15       1      14      16      12       2      11
       2       1       1       3       1       1       1       1       1       2       3       3       2       1       2       2      11       6      10      10       3      11      16      12       2      14       5      16      16       1      11
       1       2       3       1       2       1       1       2       1       2       2       2       2       1       1       5       3       2       4       0      12       6       5       9       1      12       1       2       9       6      11
       1       2       2       3       2       1       3       3       1       3       1       1       1       3       1       9      16      11       2       1      13      13      15       8       7      13       6       3       9      11      10
       1       1       2       3       2       3       3       2       2       3       2       3       3       2       1       2       9       8       9      12       3      10      13       3      13       4       1      14       9      11      10
       3       2       2       2       3       2       3       3       2       2       3       3       1       1       3       9      12      15      15       9      16       3       9      11       9      12      13       1       8       8       7
       2       1       2       1       2       2       2       3       3       3       1       1       2       2       3      11       5       4       1       8      13       0       7       4      11       1      12      16      16      10      10
       3       2       3       3       2       2       3       2       2       1       3       2       1       1       1      13       9      11       2       2      13       0      13      12      12       4      13       3      10       7      10
       3       1       1       1       1       2       3       1       2       1       1       1       1       2       2      11      10       2      16      12      14      16       7      11      12      10       3       9      16      11      11
       2       3       3       1       1       2       2       3       3       2       3       1       1       1       3      16      15       1      15      10       3       1       9      16       2       3       7      11       1      12       8
       3       1       3       3       3       1       2       2       1       3       2       2       2       2       2      13      10       4      10      15       9       2      16      12      15      16       2      13       7       0       6
       2       1       1       1       3       2       3       3       3       1       3       2       3       3       2      11      14       9       4       8       1      13       7      13      16      13      12      10       1       6       8
       3       3       3       3       1       3       2       2       3       1       1       3       3       3       1       1       7      11      12       6      14       6      13      15       8      15       6       7      14       6      11
       2       2       3       2       1       3       2       1       3       3       1       1       2       3       1       4      13       3       7      13      12      13       3      11       1       2       8      15       7      16      11
       3       2       3       2       1       1       1       1       1       2       3       2       1       2       3       5       4       6       5      13      14       1      14       0       2       9       2       7      11       7       6
       1       2       3       3       2       3       2       2       2       3       3       1       3       2       2      12      16       6       9      16      12      12       4       8       3      12       1      13       8      10       9
       3       1       1       1       1       3       2       3       1       2       1       1       2       3       1       1      14      14       0      14      15       1      10      12      10       9      13      16      14      13       8
       2       2       2       3       1       3       3       3       3       3       1       2       2       2       1      14      13       5      11       0      12      14       5       5       9      15       9       8       3       7       7
       3       2       2       3       3       1       2       1       1       1       2       2       1       2       2      13      14      13       6      12       2       7       4       1       4       7       4       9       4      11       9
       3       3       1       3       2       3       2       3       3       3       1       3       3       1       3       1       3       6       6      14       7       6       2       2      15       5       2       2       5      14       6
       1       2       3       3       2       2       3       1       2       2       2       2       2       3       3       1      13       7      14       3       7      11       1      12       6      15       6       9       4       3       9
       3       1       2       1       3       3       3       3       1       3       1       1       1       1       2      13       7       1      15       4       9       4      15       7       2      13       0       0       4      15      10
       1       2       3       2       3       3       2       2       3       2       3       1       1       3       3       7      16      10       9      12       1       3      14       4      14       2      10      15       3       4       8
       1       3       2       1       3       1       2       1       2       1       2       1       3       1       2       5      11      11      12      11       5       0       6       4       6       7       3       1      16      11      10
       1       3       1       2       1       3       2       2       2       2       1       1       1       2       3      14       7       6       8      10       6       4       0      16      11      14       7      12       3      13      10
       2       1       3       2       3       2       2       3       3       1       2       2       3       3       3      12      11       4      12       1       2       8      16       8       8       3       2      16      10      16       8
       3       2       2       2       3       1       2       2       1       1       2       3       1       1       1      15       8      14       2       0       2       5      12       9       7       7       5      15      13      16      11
       1       2       2       2       3       1       2       2       2       2       1       3       2       2       2       7      16      16      16      10       0       6       4       5       4      12      10      14       1      12       9
       1       2       2       3       2       2       2       2       2       2       2       1       2       1       2      13       0      11       9      11      15       5      16      10       6       2      11       3       4      12       7
       3       2       2       3       2       3       3       3       1       1       3       1       2       1       1       3       9      15      14       4      13       7      10      13       5      15       2      11       4       3       6
       1       2       2       3       2       1       1       1       1       1       3       3       2       1       3       1       3       7       3      14       2      14       4      11      11      11      14      10       8      11       8
      82      92      97      74      70      91      74      85      93      86      79      86      85      88      67
     175     183     191     235     188     194     236     195     206     235     163     199     185     186     206
     219     384     460     345     259     350     384     525     563     386     398     384     427     526     344